(set-info :smt-lib-version 2.6)
(set-logic UFNIRA)
(set-info :source |
Generated by: Geoff Sutcliffe
Generated on: 2026-03-11
Generator: TPTPWorld
Application: Benchmarking automated theorem provers
Time limit: 120.0

These benchmarks are translations from the TPTP Library (Thousands of
Problems for Theorem Provers), see http://www.cs.miami.edu/~tptp/

The TPTP is maintained by Geoff Sutcliffe, and he contributed this
selection of benchmarks to SMT-LIB.  They were exported from the
v9.2.1 realease of TPTP.
|)
(set-info :category "industrial")
(set-info :status unknown)
; SZS status Success
(declare-sort $$unsorted 0)
(declare-fun tptp.recf (Int Real Int) Real)
(declare-fun tptp.mysum (Int Real) Real)
(declare-fun tptp.pp (Int Real Int) Real)
(declare-fun tptp.zc (Int Real Int) Real)
(assert (not (forall ((Z Real)) (=> (and (<= 110.0 (tptp.recf 10 Z 110)) (<= (/ 9 10) Z) (<= Z 10.0)) (<= Z 1.0)))))
(assert (forall ((M Int) (Z Real)) (let ((_let_1 (* 2 M))) (= (* (to_real (- 110 _let_1)) (tptp.zc M Z 110)) (- 110.0 (* Z (to_real _let_1)))))))
(assert (forall ((M Int) (Z Real)) (let ((_let_1 (- M 1))) (= (* 110.0 (tptp.pp M Z 110)) (+ (* Z (to_real _let_1)) (* (tptp.zc M Z 110) (* (/ 1 2) (to_real (* (- M 2) _let_1)))))))))
(assert (forall ((Z Real)) (= (tptp.recf 1 Z 110) 0.0)))
(assert (forall ((M Int) (Z Real)) (let ((_let_1 (- M 1))) (=> (<= 2 M) (= (* (tptp.pp M Z 110) (tptp.recf M Z 110)) (+ 1.0 (+ (* (tptp.recf _let_1 Z 110) (* Z (to_real _let_1))) (* (tptp.zc M Z 110) (tptp.mysum M Z)))))))))
(assert (forall ((Z Real)) (= (tptp.mysum 0 Z) 0.0)))
(assert (forall ((M Int) (Z Real)) (=> (<= 1 M) (= (tptp.mysum M Z) (+ (tptp.mysum (- M 1) Z) (* (tptp.recf M Z 110) (to_real M)))))))
(check-sat)
(exit)
